Route #1: 4 5 47 21 30
Route #2: 36 60 20 37 15 57 13 54 19
Route #3: 53 11 59 14 35
Route #4: 7 8 46 34 52 27
Route #5: 45 29 48 28 61 22 62
Route #6: 6 2 33 51 17
Route #7: 40 32 44 3 16 63
Route #8: 1 43 42 64 41 56 23 49
Route #9: 26 58 38 10 31 12
Route #10: 39 9 25 55 50 18 24
Cost 845